p cnf 64 1176

    -1 -5 0
-10 -11 0
-10 -12 0
-10 -14 0
-10 -16 0
-11 -12 0
-11 -14 0
-11 -16 0
-12 -14 0
-12 -16 0
-14 -16 0
-19 -23 0
-28 -32 0
-33 -35 0
-37 -39 0
-44 -45 0
-44 -46 0
-44 -48 0
-45 -46 0
-45 -48 0
-46 -48 0
-62 -63 0
-62 -64 0
-63 -64 0
-1 -33 0
-10 -18 0
-10 -26 0
-10 -42 0
-10 -58 0
-18 -26 0
-18 -42 0
-18 -58 0
-26 -42 0
-26 -58 0
-42 -58 0
-19 -51 0
-28 -60 0
-37 -53 0
-30 -38 0
-30 -46 0
-30 -62 0
-38 -46 0
-38 -62 0
-46 -62 0
-48 -56 0
-48 -64 0
-56 -64 0
2 0
3 0
4 0
6 0
7 0
8 0
9 0
13 0
15 0
17 0
20 0
21 0
22 0
24 0
25 0
27 0
29 0
31 0
34 0
36 0
40 0
41 0
43 0
47 0
49 0
50 0
52 0
54 0
55 0
57 0
59 0
61 0
10 11 0
11 12 0
18 19 0
37 38 0
38 39 0
44 45 0
45 46 0
62 63 0
63 64 0
10 18 0
18 26 0
11 19 0
37 45 0
45 53 0
30 38 0
38 46 0
48 56 0
56 64 0
1 10 19 12 5 0
1 10 19 26 33 0
1 10 19 26 35 28 37 30 23 14 5 0
1 10 19 26 35 28 37 30 23 16 0
1 10 19 26 35 28 37 30 23 32 0
1 10 19 26 35 28 37 30 39 32 0
1 10 19 26 35 28 37 30 39 46 53 44 51 42 33 0
1 10 19 26 35 28 37 30 39 46 53 44 51 58 0
1 10 19 26 35 28 37 30 39 46 53 44 51 60 0
1 10 19 26 35 28 37 30 39 46 53 60 0
1 10 19 26 35 28 37 30 39 46 53 62 0
1 10 19 26 35 28 37 30 39 48 0
1 10 19 26 35 28 37 44 51 42 33 0
1 10 19 26 35 28 37 44 51 58 0
1 10 19 26 35 28 37 44 51 60 0
1 10 19 26 35 28 37 44 53 46 39 30 23 16 0
1 10 19 26 35 28 37 44 53 46 39 30 23 32 0
1 10 19 26 35 28 37 44 53 46 39 32 0
1 10 19 26 35 28 37 44 53 46 39 48 0
1 10 19 26 35 28 37 44 53 60 0
1 10 19 26 35 28 37 44 53 62 0
1 10 19 26 35 28 37 46 39 30 23 14 5 0
1 10 19 26 35 28 37 46 39 30 23 16 0
1 10 19 26 35 28 37 46 39 30 23 32 0
1 10 19 26 35 28 37 46 39 32 0
1 10 19 26 35 28 37 46 39 48 0
1 10 19 26 35 28 37 46 53 44 51 42 33 0
1 10 19 26 35 28 37 46 53 44 51 58 0
1 10 19 26 35 28 37 46 53 44 51 60 0
1 10 19 26 35 28 37 46 53 60 0
1 10 19 26 35 28 37 46 53 62 0
1 10 19 26 35 42 33 0
1 10 19 26 35 42 51 44 37 30 23 14 5 0
1 10 19 26 35 42 51 44 37 30 23 16 0
1 10 19 26 35 42 51 44 37 30 23 32 0
1 10 19 26 35 42 51 44 37 30 39 32 0
1 10 19 26 35 42 51 44 37 30 39 46 53 60 0
1 10 19 26 35 42 51 44 37 30 39 46 53 62 0
1 10 19 26 35 42 51 44 37 30 39 48 0
1 10 19 26 35 42 51 44 37 46 39 30 23 16 0
1 10 19 26 35 42 51 44 37 46 39 30 23 32 0
1 10 19 26 35 42 51 44 37 46 39 32 0
1 10 19 26 35 42 51 44 37 46 39 48 0
1 10 19 26 35 42 51 44 37 46 53 60 0
1 10 19 26 35 42 51 44 37 46 53 62 0
1 10 19 26 35 42 51 44 53 46 37 30 23 16 0
1 10 19 26 35 42 51 44 53 46 37 30 23 32 0
1 10 19 26 35 42 51 44 53 46 37 30 39 32 0
1 10 19 26 35 42 51 44 53 46 37 30 39 48 0
1 10 19 26 35 42 51 44 53 46 39 30 23 16 0
1 10 19 26 35 42 51 44 53 46 39 30 23 32 0
1 10 19 26 35 42 51 44 53 46 39 32 0
1 10 19 26 35 42 51 44 53 46 39 48 0
1 10 19 26 35 42 51 44 53 60 0
1 10 19 26 35 42 51 44 53 62 0
1 10 19 26 35 42 51 58 0
1 10 19 26 35 42 51 60 0
1 10 19 26 35 44 37 30 23 14 5 0
1 10 19 26 35 44 37 30 23 16 0
1 10 19 26 35 44 37 30 23 32 0
1 10 19 26 35 44 37 30 39 32 0
1 10 19 26 35 44 37 30 39 46 53 60 0
1 10 19 26 35 44 37 30 39 46 53 62 0
1 10 19 26 35 44 37 30 39 48 0
1 10 19 26 35 44 37 46 39 30 23 14 5 0
1 10 19 26 35 44 37 46 39 30 23 16 0
1 10 19 26 35 44 37 46 39 30 23 32 0
1 10 19 26 35 44 37 46 39 32 0
1 10 19 26 35 44 37 46 39 48 0
1 10 19 26 35 44 37 46 53 60 0
1 10 19 26 35 44 37 46 53 62 0
1 10 19 26 35 44 51 42 33 0
1 10 19 26 35 44 51 58 0
1 10 19 26 35 44 51 60 0
1 10 19 26 35 44 53 46 37 30 23 14 5 0
1 10 19 26 35 44 53 46 37 30 23 16 0
1 10 19 26 35 44 53 46 37 30 23 32 0
1 10 19 26 35 44 53 46 37 30 39 32 0
1 10 19 26 35 44 53 46 37 30 39 48 0
1 10 19 26 35 44 53 46 39 30 23 14 5 0
1 10 19 26 35 44 53 46 39 30 23 16 0
1 10 19 26 35 44 53 46 39 30 23 32 0
1 10 19 26 35 44 53 46 39 32 0
1 10 19 26 35 44 53 46 39 48 0
1 10 19 26 35 44 53 60 0
1 10 19 26 35 44 53 62 0
1 10 19 28 35 26 33 0
1 10 19 28 35 42 33 0
1 10 19 28 35 42 51 44 37 30 23 14 5 0
1 10 19 28 35 42 51 44 37 30 23 16 0
1 10 19 28 35 42 51 44 37 30 23 32 0
1 10 19 28 35 42 51 44 37 30 39 32 0
1 10 19 28 35 42 51 44 37 30 39 46 53 60 0
1 10 19 28 35 42 51 44 37 30 39 46 53 62 0
1 10 19 28 35 42 51 44 37 30 39 48 0
1 10 19 28 35 42 51 44 37 46 39 30 23 16 0
1 10 19 28 35 42 51 44 37 46 39 30 23 32 0
1 10 19 28 35 42 51 44 37 46 39 32 0
1 10 19 28 35 42 51 44 37 46 39 48 0
1 10 19 28 35 42 51 44 37 46 53 60 0
1 10 19 28 35 42 51 44 37 46 53 62 0
1 10 19 28 35 42 51 44 53 46 37 30 23 16 0
1 10 19 28 35 42 51 44 53 46 37 30 23 32 0
1 10 19 28 35 42 51 44 53 46 37 30 39 32 0
1 10 19 28 35 42 51 44 53 46 37 30 39 48 0
1 10 19 28 35 42 51 44 53 46 39 30 23 16 0
1 10 19 28 35 42 51 44 53 46 39 30 23 32 0
1 10 19 28 35 42 51 44 53 46 39 32 0
1 10 19 28 35 42 51 44 53 46 39 48 0
1 10 19 28 35 42 51 44 53 60 0
1 10 19 28 35 42 51 44 53 62 0
1 10 19 28 35 42 51 58 0
1 10 19 28 35 42 51 60 0
1 10 19 28 35 44 37 30 23 14 5 0
1 10 19 28 35 44 37 30 23 16 0
1 10 19 28 35 44 37 30 23 32 0
1 10 19 28 35 44 37 30 39 32 0
1 10 19 28 35 44 37 30 39 46 53 60 0
1 10 19 28 35 44 37 30 39 46 53 62 0
1 10 19 28 35 44 37 30 39 48 0
1 10 19 28 35 44 37 46 39 30 23 14 5 0
1 10 19 28 35 44 37 46 39 30 23 16 0
1 10 19 28 35 44 37 46 39 30 23 32 0
1 10 19 28 35 44 37 46 39 32 0
1 10 19 28 35 44 37 46 39 48 0
1 10 19 28 35 44 37 46 53 60 0
1 10 19 28 35 44 37 46 53 62 0
1 10 19 28 35 44 51 42 33 0
1 10 19 28 35 44 51 58 0
1 10 19 28 35 44 51 60 0
1 10 19 28 35 44 53 46 37 30 23 14 5 0
1 10 19 28 35 44 53 46 37 30 23 16 0
1 10 19 28 35 44 53 46 37 30 23 32 0
1 10 19 28 35 44 53 46 37 30 39 32 0
1 10 19 28 35 44 53 46 37 30 39 48 0
1 10 19 28 35 44 53 46 39 30 23 14 5 0
1 10 19 28 35 44 53 46 39 30 23 16 0
1 10 19 28 35 44 53 46 39 30 23 32 0
1 10 19 28 35 44 53 46 39 32 0
1 10 19 28 35 44 53 46 39 48 0
1 10 19 28 35 44 53 60 0
1 10 19 28 35 44 53 62 0
1 10 19 28 37 30 23 14 5 0
1 10 19 28 37 30 23 16 0
1 10 19 28 37 30 23 32 0
1 10 19 28 37 30 39 32 0
1 10 19 28 37 30 39 46 53 44 35 26 33 0
1 10 19 28 37 30 39 46 53 44 35 42 33 0
1 10 19 28 37 30 39 46 53 44 35 42 51 58 0
1 10 19 28 37 30 39 46 53 44 35 42 51 60 0
1 10 19 28 37 30 39 46 53 44 51 42 33 0
1 10 19 28 37 30 39 46 53 44 51 42 35 26 33 0
1 10 19 28 37 30 39 46 53 44 51 58 0
1 10 19 28 37 30 39 46 53 44 51 60 0
1 10 19 28 37 30 39 46 53 60 0
1 10 19 28 37 30 39 46 53 62 0
1 10 19 28 37 30 39 48 0
1 10 19 28 37 44 35 26 33 0
1 10 19 28 37 44 35 42 33 0
1 10 19 28 37 44 35 42 51 58 0
1 10 19 28 37 44 35 42 51 60 0
1 10 19 28 37 44 51 42 33 0
1 10 19 28 37 44 51 42 35 26 33 0
1 10 19 28 37 44 51 58 0
1 10 19 28 37 44 51 60 0
1 10 19 28 37 44 53 46 39 30 23 14 5 0
1 10 19 28 37 44 53 46 39 30 23 16 0
1 10 19 28 37 44 53 46 39 30 23 32 0
1 10 19 28 37 44 53 46 39 32 0
1 10 19 28 37 44 53 46 39 48 0
1 10 19 28 37 44 53 60 0
1 10 19 28 37 44 53 62 0
1 10 19 28 37 46 39 30 23 14 5 0
1 10 19 28 37 46 39 30 23 16 0
1 10 19 28 37 46 39 30 23 32 0
1 10 19 28 37 46 39 32 0
1 10 19 28 37 46 39 48 0
1 10 19 28 37 46 53 44 35 26 33 0
1 10 19 28 37 46 53 44 35 42 33 0
1 10 19 28 37 46 53 44 35 42 51 58 0
1 10 19 28 37 46 53 44 35 42 51 60 0
1 10 19 28 37 46 53 44 51 42 33 0
1 10 19 28 37 46 53 44 51 42 35 26 33 0
1 10 19 28 37 46 53 44 51 58 0
1 10 19 28 37 46 53 44 51 60 0
1 10 19 28 37 46 53 60 0
1 10 19 28 37 46 53 62 0
5 12 19 26 33 0
5 12 19 26 35 28 37 30 23 16 0
5 12 19 26 35 28 37 30 23 32 0
5 12 19 26 35 28 37 30 39 32 0
5 12 19 26 35 28 37 30 39 46 53 44 51 42 33 0
5 12 19 26 35 28 37 30 39 46 53 44 51 58 0
5 12 19 26 35 28 37 30 39 46 53 44 51 60 0
5 12 19 26 35 28 37 30 39 46 53 60 0
5 12 19 26 35 28 37 30 39 46 53 62 0
5 12 19 26 35 28 37 30 39 48 0
5 12 19 26 35 28 37 44 51 42 33 0
5 12 19 26 35 28 37 44 51 58 0
5 12 19 26 35 28 37 44 51 60 0
5 12 19 26 35 28 37 44 53 46 39 30 23 16 0
5 12 19 26 35 28 37 44 53 46 39 30 23 32 0
5 12 19 26 35 28 37 44 53 46 39 32 0
5 12 19 26 35 28 37 44 53 46 39 48 0
5 12 19 26 35 28 37 44 53 60 0
5 12 19 26 35 28 37 44 53 62 0
5 12 19 26 35 28 37 46 39 30 23 16 0
5 12 19 26 35 28 37 46 39 30 23 32 0
5 12 19 26 35 28 37 46 39 32 0
5 12 19 26 35 28 37 46 39 48 0
5 12 19 26 35 28 37 46 53 44 51 42 33 0
5 12 19 26 35 28 37 46 53 44 51 58 0
5 12 19 26 35 28 37 46 53 44 51 60 0
5 12 19 26 35 28 37 46 53 60 0
5 12 19 26 35 28 37 46 53 62 0
5 12 19 26 35 42 33 0
5 12 19 26 35 42 51 44 37 30 23 16 0
5 12 19 26 35 42 51 44 37 30 23 32 0
5 12 19 26 35 42 51 44 37 30 39 32 0
5 12 19 26 35 42 51 44 37 30 39 46 53 60 0
5 12 19 26 35 42 51 44 37 30 39 46 53 62 0
5 12 19 26 35 42 51 44 37 30 39 48 0
5 12 19 26 35 42 51 44 37 46 39 30 23 16 0
5 12 19 26 35 42 51 44 37 46 39 30 23 32 0
5 12 19 26 35 42 51 44 37 46 39 32 0
5 12 19 26 35 42 51 44 37 46 39 48 0
5 12 19 26 35 42 51 44 37 46 53 60 0
5 12 19 26 35 42 51 44 37 46 53 62 0
5 12 19 26 35 42 51 44 53 46 37 30 23 16 0
5 12 19 26 35 42 51 44 53 46 37 30 23 32 0
5 12 19 26 35 42 51 44 53 46 37 30 39 32 0
5 12 19 26 35 42 51 44 53 46 37 30 39 48 0
5 12 19 26 35 42 51 44 53 46 39 30 23 16 0
5 12 19 26 35 42 51 44 53 46 39 30 23 32 0
5 12 19 26 35 42 51 44 53 46 39 32 0
5 12 19 26 35 42 51 44 53 46 39 48 0
5 12 19 26 35 42 51 44 53 60 0
5 12 19 26 35 42 51 44 53 62 0
5 12 19 26 35 42 51 58 0
5 12 19 26 35 42 51 60 0
5 12 19 26 35 44 37 30 23 16 0
5 12 19 26 35 44 37 30 23 32 0
5 12 19 26 35 44 37 30 39 32 0
5 12 19 26 35 44 37 30 39 46 53 60 0
5 12 19 26 35 44 37 30 39 46 53 62 0
5 12 19 26 35 44 37 30 39 48 0
5 12 19 26 35 44 37 46 39 30 23 16 0
5 12 19 26 35 44 37 46 39 30 23 32 0
5 12 19 26 35 44 37 46 39 32 0
5 12 19 26 35 44 37 46 39 48 0
5 12 19 26 35 44 37 46 53 60 0
5 12 19 26 35 44 37 46 53 62 0
5 12 19 26 35 44 51 42 33 0
5 12 19 26 35 44 51 58 0
5 12 19 26 35 44 51 60 0
5 12 19 26 35 44 53 46 37 30 23 16 0
5 12 19 26 35 44 53 46 37 30 23 32 0
5 12 19 26 35 44 53 46 37 30 39 32 0
5 12 19 26 35 44 53 46 37 30 39 48 0
5 12 19 26 35 44 53 46 39 30 23 16 0
5 12 19 26 35 44 53 46 39 30 23 32 0
5 12 19 26 35 44 53 46 39 32 0
5 12 19 26 35 44 53 46 39 48 0
5 12 19 26 35 44 53 60 0
5 12 19 26 35 44 53 62 0
5 12 19 28 35 26 33 0
5 12 19 28 35 42 33 0
5 12 19 28 35 42 51 44 37 30 23 16 0
5 12 19 28 35 42 51 44 37 30 23 32 0
5 12 19 28 35 42 51 44 37 30 39 32 0
5 12 19 28 35 42 51 44 37 30 39 46 53 60 0
5 12 19 28 35 42 51 44 37 30 39 46 53 62 0
5 12 19 28 35 42 51 44 37 30 39 48 0
5 12 19 28 35 42 51 44 37 46 39 30 23 16 0
5 12 19 28 35 42 51 44 37 46 39 30 23 32 0
5 12 19 28 35 42 51 44 37 46 39 32 0
5 12 19 28 35 42 51 44 37 46 39 48 0
5 12 19 28 35 42 51 44 37 46 53 60 0
5 12 19 28 35 42 51 44 37 46 53 62 0
5 12 19 28 35 42 51 44 53 46 37 30 23 16 0
5 12 19 28 35 42 51 44 53 46 37 30 23 32 0
5 12 19 28 35 42 51 44 53 46 37 30 39 32 0
5 12 19 28 35 42 51 44 53 46 37 30 39 48 0
5 12 19 28 35 42 51 44 53 46 39 30 23 16 0
5 12 19 28 35 42 51 44 53 46 39 30 23 32 0
5 12 19 28 35 42 51 44 53 46 39 32 0
5 12 19 28 35 42 51 44 53 46 39 48 0
5 12 19 28 35 42 51 44 53 60 0
5 12 19 28 35 42 51 44 53 62 0
5 12 19 28 35 42 51 58 0
5 12 19 28 35 42 51 60 0
5 12 19 28 35 44 37 30 23 16 0
5 12 19 28 35 44 37 30 23 32 0
5 12 19 28 35 44 37 30 39 32 0
5 12 19 28 35 44 37 30 39 46 53 60 0
5 12 19 28 35 44 37 30 39 46 53 62 0
5 12 19 28 35 44 37 30 39 48 0
5 12 19 28 35 44 37 46 39 30 23 16 0
5 12 19 28 35 44 37 46 39 30 23 32 0
5 12 19 28 35 44 37 46 39 32 0
5 12 19 28 35 44 37 46 39 48 0
5 12 19 28 35 44 37 46 53 60 0
5 12 19 28 35 44 37 46 53 62 0
5 12 19 28 35 44 51 42 33 0
5 12 19 28 35 44 51 58 0
5 12 19 28 35 44 51 60 0
5 12 19 28 35 44 53 46 37 30 23 16 0
5 12 19 28 35 44 53 46 37 30 23 32 0
5 12 19 28 35 44 53 46 37 30 39 32 0
5 12 19 28 35 44 53 46 37 30 39 48 0
5 12 19 28 35 44 53 46 39 30 23 16 0
5 12 19 28 35 44 53 46 39 30 23 32 0
5 12 19 28 35 44 53 46 39 32 0
5 12 19 28 35 44 53 46 39 48 0
5 12 19 28 35 44 53 60 0
5 12 19 28 35 44 53 62 0
5 12 19 28 37 30 23 16 0
5 12 19 28 37 30 23 32 0
5 12 19 28 37 30 39 32 0
5 12 19 28 37 30 39 46 53 44 35 26 33 0
5 12 19 28 37 30 39 46 53 44 35 42 33 0
5 12 19 28 37 30 39 46 53 44 35 42 51 58 0
5 12 19 28 37 30 39 46 53 44 35 42 51 60 0
5 12 19 28 37 30 39 46 53 44 51 42 33 0
5 12 19 28 37 30 39 46 53 44 51 42 35 26 33 0
5 12 19 28 37 30 39 46 53 44 51 58 0
5 12 19 28 37 30 39 46 53 44 51 60 0
5 12 19 28 37 30 39 46 53 60 0
5 12 19 28 37 30 39 46 53 62 0
5 12 19 28 37 30 39 48 0
5 12 19 28 37 44 35 26 33 0
5 12 19 28 37 44 35 42 33 0
5 12 19 28 37 44 35 42 51 58 0
5 12 19 28 37 44 35 42 51 60 0
5 12 19 28 37 44 51 42 33 0
5 12 19 28 37 44 51 42 35 26 33 0
5 12 19 28 37 44 51 58 0
5 12 19 28 37 44 51 60 0
5 12 19 28 37 44 53 46 39 30 23 16 0
5 12 19 28 37 44 53 46 39 30 23 32 0
5 12 19 28 37 44 53 46 39 32 0
5 12 19 28 37 44 53 46 39 48 0
5 12 19 28 37 44 53 60 0
5 12 19 28 37 44 53 62 0
5 12 19 28 37 46 39 30 23 16 0
5 12 19 28 37 46 39 30 23 32 0
5 12 19 28 37 46 39 32 0
5 12 19 28 37 46 39 48 0
5 12 19 28 37 46 53 44 35 26 33 0
5 12 19 28 37 46 53 44 35 42 33 0
5 12 19 28 37 46 53 44 35 42 51 58 0
5 12 19 28 37 46 53 44 35 42 51 60 0
5 12 19 28 37 46 53 44 51 42 33 0
5 12 19 28 37 46 53 44 51 42 35 26 33 0
5 12 19 28 37 46 53 44 51 58 0
5 12 19 28 37 46 53 44 51 60 0
5 12 19 28 37 46 53 60 0
5 12 19 28 37 46 53 62 0
5 14 23 16 0
5 14 23 30 37 28 19 26 33 0
5 14 23 30 37 28 19 26 35 42 33 0
5 14 23 30 37 28 19 26 35 42 51 44 53 46 39 32 0
5 14 23 30 37 28 19 26 35 42 51 44 53 46 39 48 0
5 14 23 30 37 28 19 26 35 42 51 44 53 60 0
5 14 23 30 37 28 19 26 35 42 51 44 53 62 0
5 14 23 30 37 28 19 26 35 42 51 58 0
5 14 23 30 37 28 19 26 35 42 51 60 0
5 14 23 30 37 28 19 26 35 44 51 42 33 0
5 14 23 30 37 28 19 26 35 44 51 58 0
5 14 23 30 37 28 19 26 35 44 51 60 0
5 14 23 30 37 28 19 26 35 44 53 46 39 32 0
5 14 23 30 37 28 19 26 35 44 53 46 39 48 0
5 14 23 30 37 28 19 26 35 44 53 60 0
5 14 23 30 37 28 19 26 35 44 53 62 0
5 14 23 30 37 28 35 26 33 0
5 14 23 30 37 28 35 42 33 0
5 14 23 30 37 28 35 42 51 44 53 46 39 32 0
5 14 23 30 37 28 35 42 51 44 53 46 39 48 0
5 14 23 30 37 28 35 42 51 44 53 60 0
5 14 23 30 37 28 35 42 51 44 53 62 0
5 14 23 30 37 28 35 42 51 58 0
5 14 23 30 37 28 35 42 51 60 0
5 14 23 30 37 28 35 44 51 42 33 0
5 14 23 30 37 28 35 44 51 58 0
5 14 23 30 37 28 35 44 51 60 0
5 14 23 30 37 28 35 44 53 46 39 32 0
5 14 23 30 37 28 35 44 53 46 39 48 0
5 14 23 30 37 28 35 44 53 60 0
5 14 23 30 37 28 35 44 53 62 0
5 14 23 30 37 44 35 26 33 0
5 14 23 30 37 44 35 28 19 26 33 0
5 14 23 30 37 44 35 42 33 0
5 14 23 30 37 44 35 42 51 58 0
5 14 23 30 37 44 35 42 51 60 0
5 14 23 30 37 44 51 42 33 0
5 14 23 30 37 44 51 42 35 26 33 0
5 14 23 30 37 44 51 42 35 28 19 26 33 0
5 14 23 30 37 44 51 58 0
5 14 23 30 37 44 51 60 0
5 14 23 30 37 44 53 46 39 32 0
5 14 23 30 37 44 53 46 39 48 0
5 14 23 30 37 44 53 60 0
5 14 23 30 37 44 53 62 0
5 14 23 30 37 46 39 32 0
5 14 23 30 37 46 39 48 0
5 14 23 30 37 46 53 44 35 26 33 0
5 14 23 30 37 46 53 44 35 28 19 26 33 0
5 14 23 30 37 46 53 44 35 42 33 0
5 14 23 30 37 46 53 44 35 42 51 58 0
5 14 23 30 37 46 53 44 35 42 51 60 0
5 14 23 30 37 46 53 44 51 42 33 0
5 14 23 30 37 46 53 44 51 42 35 26 33 0
5 14 23 30 37 46 53 44 51 42 35 28 19 26 33 0
5 14 23 30 37 46 53 44 51 58 0
5 14 23 30 37 46 53 44 51 60 0
5 14 23 30 37 46 53 60 0
5 14 23 30 37 46 53 62 0
5 14 23 30 39 32 0
5 14 23 30 39 46 37 28 19 26 33 0
5 14 23 30 39 46 37 28 19 26 35 42 33 0
5 14 23 30 39 46 37 28 19 26 35 42 51 44 53 60 0
5 14 23 30 39 46 37 28 19 26 35 42 51 44 53 62 0
5 14 23 30 39 46 37 28 19 26 35 42 51 58 0
5 14 23 30 39 46 37 28 19 26 35 42 51 60 0
5 14 23 30 39 46 37 28 19 26 35 44 51 42 33 0
5 14 23 30 39 46 37 28 19 26 35 44 51 58 0
5 14 23 30 39 46 37 28 19 26 35 44 51 60 0
5 14 23 30 39 46 37 28 19 26 35 44 53 60 0
5 14 23 30 39 46 37 28 19 26 35 44 53 62 0
5 14 23 30 39 46 37 28 35 26 33 0
5 14 23 30 39 46 37 28 35 42 33 0
5 14 23 30 39 46 37 28 35 42 51 44 53 60 0
5 14 23 30 39 46 37 28 35 42 51 44 53 62 0
5 14 23 30 39 46 37 28 35 42 51 58 0
5 14 23 30 39 46 37 28 35 42 51 60 0
5 14 23 30 39 46 37 28 35 44 51 42 33 0
5 14 23 30 39 46 37 28 35 44 51 58 0
5 14 23 30 39 46 37 28 35 44 51 60 0
5 14 23 30 39 46 37 28 35 44 53 60 0
5 14 23 30 39 46 37 28 35 44 53 62 0
5 14 23 30 39 46 37 44 35 26 33 0
5 14 23 30 39 46 37 44 35 28 19 26 33 0
5 14 23 30 39 46 37 44 35 42 33 0
5 14 23 30 39 46 37 44 35 42 51 58 0
5 14 23 30 39 46 37 44 35 42 51 60 0
5 14 23 30 39 46 37 44 51 42 33 0
5 14 23 30 39 46 37 44 51 42 35 26 33 0
5 14 23 30 39 46 37 44 51 42 35 28 19 26 33 0
5 14 23 30 39 46 37 44 51 58 0
5 14 23 30 39 46 37 44 51 60 0
5 14 23 30 39 46 37 44 53 60 0
5 14 23 30 39 46 37 44 53 62 0
5 14 23 30 39 46 53 44 35 26 33 0
5 14 23 30 39 46 53 44 35 28 19 26 33 0
5 14 23 30 39 46 53 44 35 42 33 0
5 14 23 30 39 46 53 44 35 42 51 58 0
5 14 23 30 39 46 53 44 35 42 51 60 0
5 14 23 30 39 46 53 44 37 28 19 26 33 0
5 14 23 30 39 46 53 44 37 28 19 26 35 42 33 0
5 14 23 30 39 46 53 44 37 28 19 26 35 42 51 58 0
5 14 23 30 39 46 53 44 37 28 19 26 35 42 51 60 0
5 14 23 30 39 46 53 44 37 28 35 26 33 0
5 14 23 30 39 46 53 44 37 28 35 42 33 0
5 14 23 30 39 46 53 44 37 28 35 42 51 58 0
5 14 23 30 39 46 53 44 37 28 35 42 51 60 0
5 14 23 30 39 46 53 44 51 42 33 0
5 14 23 30 39 46 53 44 51 42 35 26 33 0
5 14 23 30 39 46 53 44 51 42 35 28 19 26 33 0
5 14 23 30 39 46 53 44 51 58 0
5 14 23 30 39 46 53 44 51 60 0
5 14 23 30 39 46 53 60 0
5 14 23 30 39 46 53 62 0
5 14 23 30 39 48 0
5 14 23 32 0
16 23 30 37 28 19 26 33 0
16 23 30 37 28 19 26 35 42 33 0
16 23 30 37 28 19 26 35 42 51 44 53 46 39 32 0
16 23 30 37 28 19 26 35 42 51 44 53 46 39 48 0
16 23 30 37 28 19 26 35 42 51 44 53 60 0
16 23 30 37 28 19 26 35 42 51 44 53 62 0
16 23 30 37 28 19 26 35 42 51 58 0
16 23 30 37 28 19 26 35 42 51 60 0
16 23 30 37 28 19 26 35 44 51 42 33 0
16 23 30 37 28 19 26 35 44 51 58 0
16 23 30 37 28 19 26 35 44 51 60 0
16 23 30 37 28 19 26 35 44 53 46 39 32 0
16 23 30 37 28 19 26 35 44 53 46 39 48 0
16 23 30 37 28 19 26 35 44 53 60 0
16 23 30 37 28 19 26 35 44 53 62 0
16 23 30 37 28 35 26 33 0
16 23 30 37 28 35 42 33 0
16 23 30 37 28 35 42 51 44 53 46 39 32 0
16 23 30 37 28 35 42 51 44 53 46 39 48 0
16 23 30 37 28 35 42 51 44 53 60 0
16 23 30 37 28 35 42 51 44 53 62 0
16 23 30 37 28 35 42 51 58 0
16 23 30 37 28 35 42 51 60 0
16 23 30 37 28 35 44 51 42 33 0
16 23 30 37 28 35 44 51 58 0
16 23 30 37 28 35 44 51 60 0
16 23 30 37 28 35 44 53 46 39 32 0
16 23 30 37 28 35 44 53 46 39 48 0
16 23 30 37 28 35 44 53 60 0
16 23 30 37 28 35 44 53 62 0
16 23 30 37 44 35 26 33 0
16 23 30 37 44 35 28 19 26 33 0
16 23 30 37 44 35 42 33 0
16 23 30 37 44 35 42 51 58 0
16 23 30 37 44 35 42 51 60 0
16 23 30 37 44 51 42 33 0
16 23 30 37 44 51 42 35 26 33 0
16 23 30 37 44 51 42 35 28 19 26 33 0
16 23 30 37 44 51 58 0
16 23 30 37 44 51 60 0
16 23 30 37 44 53 46 39 32 0
16 23 30 37 44 53 46 39 48 0
16 23 30 37 44 53 60 0
16 23 30 37 44 53 62 0
16 23 30 37 46 39 32 0
16 23 30 37 46 39 48 0
16 23 30 37 46 53 44 35 26 33 0
16 23 30 37 46 53 44 35 28 19 26 33 0
16 23 30 37 46 53 44 35 42 33 0
16 23 30 37 46 53 44 35 42 51 58 0
16 23 30 37 46 53 44 35 42 51 60 0
16 23 30 37 46 53 44 51 42 33 0
16 23 30 37 46 53 44 51 42 35 26 33 0
16 23 30 37 46 53 44 51 42 35 28 19 26 33 0
16 23 30 37 46 53 44 51 58 0
16 23 30 37 46 53 44 51 60 0
16 23 30 37 46 53 60 0
16 23 30 37 46 53 62 0
16 23 30 39 32 0
16 23 30 39 46 37 28 19 26 33 0
16 23 30 39 46 37 28 19 26 35 42 33 0
16 23 30 39 46 37 28 19 26 35 42 51 44 53 60 0
16 23 30 39 46 37 28 19 26 35 42 51 44 53 62 0
16 23 30 39 46 37 28 19 26 35 42 51 58 0
16 23 30 39 46 37 28 19 26 35 42 51 60 0
16 23 30 39 46 37 28 19 26 35 44 51 42 33 0
16 23 30 39 46 37 28 19 26 35 44 51 58 0
16 23 30 39 46 37 28 19 26 35 44 51 60 0
16 23 30 39 46 37 28 19 26 35 44 53 60 0
16 23 30 39 46 37 28 19 26 35 44 53 62 0
16 23 30 39 46 37 28 35 26 33 0
16 23 30 39 46 37 28 35 42 33 0
16 23 30 39 46 37 28 35 42 51 44 53 60 0
16 23 30 39 46 37 28 35 42 51 44 53 62 0
16 23 30 39 46 37 28 35 42 51 58 0
16 23 30 39 46 37 28 35 42 51 60 0
16 23 30 39 46 37 28 35 44 51 42 33 0
16 23 30 39 46 37 28 35 44 51 58 0
16 23 30 39 46 37 28 35 44 51 60 0
16 23 30 39 46 37 28 35 44 53 60 0
16 23 30 39 46 37 28 35 44 53 62 0
16 23 30 39 46 37 44 35 26 33 0
16 23 30 39 46 37 44 35 28 19 26 33 0
16 23 30 39 46 37 44 35 42 33 0
16 23 30 39 46 37 44 35 42 51 58 0
16 23 30 39 46 37 44 35 42 51 60 0
16 23 30 39 46 37 44 51 42 33 0
16 23 30 39 46 37 44 51 42 35 26 33 0
16 23 30 39 46 37 44 51 42 35 28 19 26 33 0
16 23 30 39 46 37 44 51 58 0
16 23 30 39 46 37 44 51 60 0
16 23 30 39 46 37 44 53 60 0
16 23 30 39 46 37 44 53 62 0
16 23 30 39 46 53 44 35 26 33 0
16 23 30 39 46 53 44 35 28 19 26 33 0
16 23 30 39 46 53 44 35 42 33 0
16 23 30 39 46 53 44 35 42 51 58 0
16 23 30 39 46 53 44 35 42 51 60 0
16 23 30 39 46 53 44 37 28 19 26 33 0
16 23 30 39 46 53 44 37 28 19 26 35 42 33 0
16 23 30 39 46 53 44 37 28 19 26 35 42 51 58 0
16 23 30 39 46 53 44 37 28 19 26 35 42 51 60 0
16 23 30 39 46 53 44 37 28 35 26 33 0
16 23 30 39 46 53 44 37 28 35 42 33 0
16 23 30 39 46 53 44 37 28 35 42 51 58 0
16 23 30 39 46 53 44 37 28 35 42 51 60 0
16 23 30 39 46 53 44 51 42 33 0
16 23 30 39 46 53 44 51 42 35 26 33 0
16 23 30 39 46 53 44 51 42 35 28 19 26 33 0
16 23 30 39 46 53 44 51 58 0
16 23 30 39 46 53 44 51 60 0
16 23 30 39 46 53 60 0
16 23 30 39 46 53 62 0
16 23 30 39 48 0
16 23 32 0
32 23 30 37 28 19 26 33 0
32 23 30 37 28 19 26 35 42 33 0
32 23 30 37 28 19 26 35 42 51 44 53 46 39 48 0
32 23 30 37 28 19 26 35 42 51 44 53 60 0
32 23 30 37 28 19 26 35 42 51 44 53 62 0
32 23 30 37 28 19 26 35 42 51 58 0
32 23 30 37 28 19 26 35 42 51 60 0
32 23 30 37 28 19 26 35 44 51 42 33 0
32 23 30 37 28 19 26 35 44 51 58 0
32 23 30 37 28 19 26 35 44 51 60 0
32 23 30 37 28 19 26 35 44 53 46 39 48 0
32 23 30 37 28 19 26 35 44 53 60 0
32 23 30 37 28 19 26 35 44 53 62 0
32 23 30 37 28 35 26 33 0
32 23 30 37 28 35 42 33 0
32 23 30 37 28 35 42 51 44 53 46 39 48 0
32 23 30 37 28 35 42 51 44 53 60 0
32 23 30 37 28 35 42 51 44 53 62 0
32 23 30 37 28 35 42 51 58 0
32 23 30 37 28 35 42 51 60 0
32 23 30 37 28 35 44 51 42 33 0
32 23 30 37 28 35 44 51 58 0
32 23 30 37 28 35 44 51 60 0
32 23 30 37 28 35 44 53 46 39 48 0
32 23 30 37 28 35 44 53 60 0
32 23 30 37 28 35 44 53 62 0
32 23 30 37 44 35 26 33 0
32 23 30 37 44 35 28 19 26 33 0
32 23 30 37 44 35 42 33 0
32 23 30 37 44 35 42 51 58 0
32 23 30 37 44 35 42 51 60 0
32 23 30 37 44 51 42 33 0
32 23 30 37 44 51 42 35 26 33 0
32 23 30 37 44 51 42 35 28 19 26 33 0
32 23 30 37 44 51 58 0
32 23 30 37 44 51 60 0
32 23 30 37 44 53 46 39 48 0
32 23 30 37 44 53 60 0
32 23 30 37 44 53 62 0
32 23 30 37 46 39 48 0
32 23 30 37 46 53 44 35 26 33 0
32 23 30 37 46 53 44 35 28 19 26 33 0
32 23 30 37 46 53 44 35 42 33 0
32 23 30 37 46 53 44 35 42 51 58 0
32 23 30 37 46 53 44 35 42 51 60 0
32 23 30 37 46 53 44 51 42 33 0
32 23 30 37 46 53 44 51 42 35 26 33 0
32 23 30 37 46 53 44 51 42 35 28 19 26 33 0
32 23 30 37 46 53 44 51 58 0
32 23 30 37 46 53 44 51 60 0
32 23 30 37 46 53 60 0
32 23 30 37 46 53 62 0
32 23 30 39 46 37 28 19 26 33 0
32 23 30 39 46 37 28 19 26 35 42 33 0
32 23 30 39 46 37 28 19 26 35 42 51 44 53 60 0
32 23 30 39 46 37 28 19 26 35 42 51 44 53 62 0
32 23 30 39 46 37 28 19 26 35 42 51 58 0
32 23 30 39 46 37 28 19 26 35 42 51 60 0
32 23 30 39 46 37 28 19 26 35 44 51 42 33 0
32 23 30 39 46 37 28 19 26 35 44 51 58 0
32 23 30 39 46 37 28 19 26 35 44 51 60 0
32 23 30 39 46 37 28 19 26 35 44 53 60 0
32 23 30 39 46 37 28 19 26 35 44 53 62 0
32 23 30 39 46 37 28 35 26 33 0
32 23 30 39 46 37 28 35 42 33 0
32 23 30 39 46 37 28 35 42 51 44 53 60 0
32 23 30 39 46 37 28 35 42 51 44 53 62 0
32 23 30 39 46 37 28 35 42 51 58 0
32 23 30 39 46 37 28 35 42 51 60 0
32 23 30 39 46 37 28 35 44 51 42 33 0
32 23 30 39 46 37 28 35 44 51 58 0
32 23 30 39 46 37 28 35 44 51 60 0
32 23 30 39 46 37 28 35 44 53 60 0
32 23 30 39 46 37 28 35 44 53 62 0
32 23 30 39 46 37 44 35 26 33 0
32 23 30 39 46 37 44 35 28 19 26 33 0
32 23 30 39 46 37 44 35 42 33 0
32 23 30 39 46 37 44 35 42 51 58 0
32 23 30 39 46 37 44 35 42 51 60 0
32 23 30 39 46 37 44 51 42 33 0
32 23 30 39 46 37 44 51 42 35 26 33 0
32 23 30 39 46 37 44 51 42 35 28 19 26 33 0
32 23 30 39 46 37 44 51 58 0
32 23 30 39 46 37 44 51 60 0
32 23 30 39 46 37 44 53 60 0
32 23 30 39 46 37 44 53 62 0
32 23 30 39 46 53 44 35 26 33 0
32 23 30 39 46 53 44 35 28 19 26 33 0
32 23 30 39 46 53 44 35 42 33 0
32 23 30 39 46 53 44 35 42 51 58 0
32 23 30 39 46 53 44 35 42 51 60 0
32 23 30 39 46 53 44 37 28 19 26 33 0
32 23 30 39 46 53 44 37 28 19 26 35 42 33 0
32 23 30 39 46 53 44 37 28 19 26 35 42 51 58 0
32 23 30 39 46 53 44 37 28 19 26 35 42 51 60 0
32 23 30 39 46 53 44 37 28 35 26 33 0
32 23 30 39 46 53 44 37 28 35 42 33 0
32 23 30 39 46 53 44 37 28 35 42 51 58 0
32 23 30 39 46 53 44 37 28 35 42 51 60 0
32 23 30 39 46 53 44 51 42 33 0
32 23 30 39 46 53 44 51 42 35 26 33 0
32 23 30 39 46 53 44 51 42 35 28 19 26 33 0
32 23 30 39 46 53 44 51 58 0
32 23 30 39 46 53 44 51 60 0
32 23 30 39 46 53 60 0
32 23 30 39 46 53 62 0
32 23 30 39 48 0
32 39 30 37 28 19 26 33 0
32 39 30 37 28 19 26 35 42 33 0
32 39 30 37 28 19 26 35 42 51 44 53 60 0
32 39 30 37 28 19 26 35 42 51 44 53 62 0
32 39 30 37 28 19 26 35 42 51 58 0
32 39 30 37 28 19 26 35 42 51 60 0
32 39 30 37 28 19 26 35 44 51 42 33 0
32 39 30 37 28 19 26 35 44 51 58 0
32 39 30 37 28 19 26 35 44 51 60 0
32 39 30 37 28 19 26 35 44 53 60 0
32 39 30 37 28 19 26 35 44 53 62 0
32 39 30 37 28 35 26 33 0
32 39 30 37 28 35 42 33 0
32 39 30 37 28 35 42 51 44 53 60 0
32 39 30 37 28 35 42 51 44 53 62 0
32 39 30 37 28 35 42 51 58 0
32 39 30 37 28 35 42 51 60 0
32 39 30 37 28 35 44 51 42 33 0
32 39 30 37 28 35 44 51 58 0
32 39 30 37 28 35 44 51 60 0
32 39 30 37 28 35 44 53 60 0
32 39 30 37 28 35 44 53 62 0
32 39 30 37 44 35 26 33 0
32 39 30 37 44 35 28 19 26 33 0
32 39 30 37 44 35 42 33 0
32 39 30 37 44 35 42 51 58 0
32 39 30 37 44 35 42 51 60 0
32 39 30 37 44 51 42 33 0
32 39 30 37 44 51 42 35 26 33 0
32 39 30 37 44 51 42 35 28 19 26 33 0
32 39 30 37 44 51 58 0
32 39 30 37 44 51 60 0
32 39 30 37 44 53 60 0
32 39 30 37 44 53 62 0
32 39 30 37 46 53 44 35 26 33 0
32 39 30 37 46 53 44 35 28 19 26 33 0
32 39 30 37 46 53 44 35 42 33 0
32 39 30 37 46 53 44 35 42 51 58 0
32 39 30 37 46 53 44 35 42 51 60 0
32 39 30 37 46 53 44 51 42 33 0
32 39 30 37 46 53 44 51 42 35 26 33 0
32 39 30 37 46 53 44 51 42 35 28 19 26 33 0
32 39 30 37 46 53 44 51 58 0
32 39 30 37 46 53 44 51 60 0
32 39 30 37 46 53 60 0
32 39 30 37 46 53 62 0
32 39 46 37 28 19 26 33 0
32 39 46 37 28 19 26 35 42 33 0
32 39 46 37 28 19 26 35 42 51 44 53 60 0
32 39 46 37 28 19 26 35 42 51 44 53 62 0
32 39 46 37 28 19 26 35 42 51 58 0
32 39 46 37 28 19 26 35 42 51 60 0
32 39 46 37 28 19 26 35 44 51 42 33 0
32 39 46 37 28 19 26 35 44 51 58 0
32 39 46 37 28 19 26 35 44 51 60 0
32 39 46 37 28 19 26 35 44 53 60 0
32 39 46 37 28 19 26 35 44 53 62 0
32 39 46 37 28 35 26 33 0
32 39 46 37 28 35 42 33 0
32 39 46 37 28 35 42 51 44 53 60 0
32 39 46 37 28 35 42 51 44 53 62 0
32 39 46 37 28 35 42 51 58 0
32 39 46 37 28 35 42 51 60 0
32 39 46 37 28 35 44 51 42 33 0
32 39 46 37 28 35 44 51 58 0
32 39 46 37 28 35 44 51 60 0
32 39 46 37 28 35 44 53 60 0
32 39 46 37 28 35 44 53 62 0
32 39 46 37 44 35 26 33 0
32 39 46 37 44 35 28 19 26 33 0
32 39 46 37 44 35 42 33 0
32 39 46 37 44 35 42 51 58 0
32 39 46 37 44 35 42 51 60 0
32 39 46 37 44 51 42 33 0
32 39 46 37 44 51 42 35 26 33 0
32 39 46 37 44 51 42 35 28 19 26 33 0
32 39 46 37 44 51 58 0
32 39 46 37 44 51 60 0
32 39 46 37 44 53 60 0
32 39 46 37 44 53 62 0
32 39 46 53 44 35 26 33 0
32 39 46 53 44 35 28 19 26 33 0
32 39 46 53 44 35 42 33 0
32 39 46 53 44 35 42 51 58 0
32 39 46 53 44 35 42 51 60 0
32 39 46 53 44 37 28 19 26 33 0
32 39 46 53 44 37 28 19 26 35 42 33 0
32 39 46 53 44 37 28 19 26 35 42 51 58 0
32 39 46 53 44 37 28 19 26 35 42 51 60 0
32 39 46 53 44 37 28 35 26 33 0
32 39 46 53 44 37 28 35 42 33 0
32 39 46 53 44 37 28 35 42 51 58 0
32 39 46 53 44 37 28 35 42 51 60 0
32 39 46 53 44 51 42 33 0
32 39 46 53 44 51 42 35 26 33 0
32 39 46 53 44 51 42 35 28 19 26 33 0
32 39 46 53 44 51 58 0
32 39 46 53 44 51 60 0
32 39 46 53 60 0
32 39 46 53 62 0
32 39 48 0
33 26 19 28 35 42 51 44 37 30 39 46 53 60 0
33 26 19 28 35 42 51 44 37 30 39 46 53 62 0
33 26 19 28 35 42 51 44 37 30 39 48 0
33 26 19 28 35 42 51 44 37 46 39 48 0
33 26 19 28 35 42 51 44 37 46 53 60 0
33 26 19 28 35 42 51 44 37 46 53 62 0
33 26 19 28 35 42 51 44 53 46 37 30 39 48 0
33 26 19 28 35 42 51 44 53 46 39 48 0
33 26 19 28 35 42 51 44 53 60 0
33 26 19 28 35 42 51 44 53 62 0
33 26 19 28 35 42 51 58 0
33 26 19 28 35 42 51 60 0
33 26 19 28 35 44 37 30 39 46 53 60 0
33 26 19 28 35 44 37 30 39 46 53 62 0
33 26 19 28 35 44 37 30 39 48 0
33 26 19 28 35 44 37 46 39 48 0
33 26 19 28 35 44 37 46 53 60 0
33 26 19 28 35 44 37 46 53 62 0
33 26 19 28 35 44 51 58 0
33 26 19 28 35 44 51 60 0
33 26 19 28 35 44 53 46 37 30 39 48 0
33 26 19 28 35 44 53 46 39 48 0
33 26 19 28 35 44 53 60 0
33 26 19 28 35 44 53 62 0
33 26 19 28 37 30 39 46 53 44 35 42 51 58 0
33 26 19 28 37 30 39 46 53 44 35 42 51 60 0
33 26 19 28 37 30 39 46 53 44 51 58 0
33 26 19 28 37 30 39 46 53 44 51 60 0
33 26 19 28 37 30 39 46 53 60 0
33 26 19 28 37 30 39 46 53 62 0
33 26 19 28 37 30 39 48 0
33 26 19 28 37 44 35 42 51 58 0
33 26 19 28 37 44 35 42 51 60 0
33 26 19 28 37 44 51 58 0
33 26 19 28 37 44 51 60 0
33 26 19 28 37 44 53 46 39 48 0
33 26 19 28 37 44 53 60 0
33 26 19 28 37 44 53 62 0
33 26 19 28 37 46 39 48 0
33 26 19 28 37 46 53 44 35 42 51 58 0
33 26 19 28 37 46 53 44 35 42 51 60 0
33 26 19 28 37 46 53 44 51 58 0
33 26 19 28 37 46 53 44 51 60 0
33 26 19 28 37 46 53 60 0
33 26 19 28 37 46 53 62 0
33 26 35 28 37 30 39 46 53 44 51 58 0
33 26 35 28 37 30 39 46 53 44 51 60 0
33 26 35 28 37 30 39 46 53 60 0
33 26 35 28 37 30 39 46 53 62 0
33 26 35 28 37 30 39 48 0
33 26 35 28 37 44 51 58 0
33 26 35 28 37 44 51 60 0
33 26 35 28 37 44 53 46 39 48 0
33 26 35 28 37 44 53 60 0
33 26 35 28 37 44 53 62 0
33 26 35 28 37 46 39 48 0
33 26 35 28 37 46 53 44 51 58 0
33 26 35 28 37 46 53 44 51 60 0
33 26 35 28 37 46 53 60 0
33 26 35 28 37 46 53 62 0
33 26 35 42 51 44 37 30 39 46 53 60 0
33 26 35 42 51 44 37 30 39 46 53 62 0
33 26 35 42 51 44 37 30 39 48 0
33 26 35 42 51 44 37 46 39 48 0
33 26 35 42 51 44 37 46 53 60 0
33 26 35 42 51 44 37 46 53 62 0
33 26 35 42 51 44 53 46 37 30 39 48 0
33 26 35 42 51 44 53 46 39 48 0
33 26 35 42 51 44 53 60 0
33 26 35 42 51 44 53 62 0
33 26 35 42 51 58 0
33 26 35 42 51 60 0
33 26 35 44 37 30 39 46 53 60 0
33 26 35 44 37 30 39 46 53 62 0
33 26 35 44 37 30 39 48 0
33 26 35 44 37 46 39 48 0
33 26 35 44 37 46 53 60 0
33 26 35 44 37 46 53 62 0
33 26 35 44 51 58 0
33 26 35 44 51 60 0
33 26 35 44 53 46 37 30 39 48 0
33 26 35 44 53 46 39 48 0
33 26 35 44 53 60 0
33 26 35 44 53 62 0
33 42 35 26 19 28 37 30 39 46 53 44 51 58 0
33 42 35 26 19 28 37 30 39 46 53 44 51 60 0
33 42 35 26 19 28 37 30 39 46 53 60 0
33 42 35 26 19 28 37 30 39 46 53 62 0
33 42 35 26 19 28 37 30 39 48 0
33 42 35 26 19 28 37 44 51 58 0
33 42 35 26 19 28 37 44 51 60 0
33 42 35 26 19 28 37 44 53 46 39 48 0
33 42 35 26 19 28 37 44 53 60 0
33 42 35 26 19 28 37 44 53 62 0
33 42 35 26 19 28 37 46 39 48 0
33 42 35 26 19 28 37 46 53 44 51 58 0
33 42 35 26 19 28 37 46 53 44 51 60 0
33 42 35 26 19 28 37 46 53 60 0
33 42 35 26 19 28 37 46 53 62 0
33 42 35 28 37 30 39 46 53 44 51 58 0
33 42 35 28 37 30 39 46 53 44 51 60 0
33 42 35 28 37 30 39 46 53 60 0
33 42 35 28 37 30 39 46 53 62 0
33 42 35 28 37 30 39 48 0
33 42 35 28 37 44 51 58 0
33 42 35 28 37 44 51 60 0
33 42 35 28 37 44 53 46 39 48 0
33 42 35 28 37 44 53 60 0
33 42 35 28 37 44 53 62 0
33 42 35 28 37 46 39 48 0
33 42 35 28 37 46 53 44 51 58 0
33 42 35 28 37 46 53 44 51 60 0
33 42 35 28 37 46 53 60 0
33 42 35 28 37 46 53 62 0
33 42 35 44 37 30 39 46 53 60 0
33 42 35 44 37 30 39 46 53 62 0
33 42 35 44 37 30 39 48 0
33 42 35 44 37 46 39 48 0
33 42 35 44 37 46 53 60 0
33 42 35 44 37 46 53 62 0
33 42 35 44 51 58 0
33 42 35 44 51 60 0
33 42 35 44 53 46 37 30 39 48 0
33 42 35 44 53 46 39 48 0
33 42 35 44 53 60 0
33 42 35 44 53 62 0
33 42 51 44 35 26 19 28 37 30 39 46 53 60 0
33 42 51 44 35 26 19 28 37 30 39 46 53 62 0
33 42 51 44 35 26 19 28 37 30 39 48 0
33 42 51 44 35 26 19 28 37 46 39 48 0
33 42 51 44 35 26 19 28 37 46 53 60 0
33 42 51 44 35 26 19 28 37 46 53 62 0
33 42 51 44 35 28 37 30 39 46 53 60 0
33 42 51 44 35 28 37 30 39 46 53 62 0
33 42 51 44 35 28 37 30 39 48 0
33 42 51 44 35 28 37 46 39 48 0
33 42 51 44 35 28 37 46 53 60 0
33 42 51 44 35 28 37 46 53 62 0
33 42 51 44 37 30 39 46 53 60 0
33 42 51 44 37 30 39 46 53 62 0
33 42 51 44 37 30 39 48 0
33 42 51 44 37 46 39 48 0
33 42 51 44 37 46 53 60 0
33 42 51 44 37 46 53 62 0
33 42 51 44 53 46 37 30 39 48 0
33 42 51 44 53 46 39 48 0
33 42 51 44 53 60 0
33 42 51 44 53 62 0
33 42 51 58 0
33 42 51 60 0
48 39 30 37 28 19 26 35 42 51 44 53 60 0
48 39 30 37 28 19 26 35 42 51 44 53 62 0
48 39 30 37 28 19 26 35 42 51 58 0
48 39 30 37 28 19 26 35 42 51 60 0
48 39 30 37 28 19 26 35 44 51 58 0
48 39 30 37 28 19 26 35 44 51 60 0
48 39 30 37 28 19 26 35 44 53 60 0
48 39 30 37 28 19 26 35 44 53 62 0
48 39 30 37 28 35 42 51 44 53 60 0
48 39 30 37 28 35 42 51 44 53 62 0
48 39 30 37 28 35 42 51 58 0
48 39 30 37 28 35 42 51 60 0
48 39 30 37 28 35 44 51 58 0
48 39 30 37 28 35 44 51 60 0
48 39 30 37 28 35 44 53 60 0
48 39 30 37 28 35 44 53 62 0
48 39 30 37 44 35 42 51 58 0
48 39 30 37 44 35 42 51 60 0
48 39 30 37 44 51 58 0
48 39 30 37 44 51 60 0
48 39 30 37 44 53 60 0
48 39 30 37 44 53 62 0
48 39 30 37 46 53 44 35 42 51 58 0
48 39 30 37 46 53 44 35 42 51 60 0
48 39 30 37 46 53 44 51 58 0
48 39 30 37 46 53 44 51 60 0
48 39 30 37 46 53 60 0
48 39 30 37 46 53 62 0
48 39 46 37 28 19 26 35 42 51 44 53 60 0
48 39 46 37 28 19 26 35 42 51 44 53 62 0
48 39 46 37 28 19 26 35 42 51 58 0
48 39 46 37 28 19 26 35 42 51 60 0
48 39 46 37 28 19 26 35 44 51 58 0
48 39 46 37 28 19 26 35 44 51 60 0
48 39 46 37 28 19 26 35 44 53 60 0
48 39 46 37 28 19 26 35 44 53 62 0
48 39 46 37 28 35 42 51 44 53 60 0
48 39 46 37 28 35 42 51 44 53 62 0
48 39 46 37 28 35 42 51 58 0
48 39 46 37 28 35 42 51 60 0
48 39 46 37 28 35 44 51 58 0
48 39 46 37 28 35 44 51 60 0
48 39 46 37 28 35 44 53 60 0
48 39 46 37 28 35 44 53 62 0
48 39 46 37 44 35 42 51 58 0
48 39 46 37 44 35 42 51 60 0
48 39 46 37 44 51 58 0
48 39 46 37 44 51 60 0
48 39 46 37 44 53 60 0
48 39 46 37 44 53 62 0
48 39 46 53 44 35 42 51 58 0
48 39 46 53 44 35 42 51 60 0
48 39 46 53 44 37 28 19 26 35 42 51 58 0
48 39 46 53 44 37 28 19 26 35 42 51 60 0
48 39 46 53 44 37 28 35 42 51 58 0
48 39 46 53 44 37 28 35 42 51 60 0
48 39 46 53 44 51 58 0
48 39 46 53 44 51 60 0
48 39 46 53 60 0
48 39 46 53 62 0
56 63 0
58 51 42 35 26 19 28 37 30 39 46 53 60 0
58 51 42 35 26 19 28 37 30 39 46 53 62 0
58 51 42 35 26 19 28 37 44 53 60 0
58 51 42 35 26 19 28 37 44 53 62 0
58 51 42 35 26 19 28 37 46 53 60 0
58 51 42 35 26 19 28 37 46 53 62 0
58 51 42 35 28 37 30 39 46 53 60 0
58 51 42 35 28 37 30 39 46 53 62 0
58 51 42 35 28 37 44 53 60 0
58 51 42 35 28 37 44 53 62 0
58 51 42 35 28 37 46 53 60 0
58 51 42 35 28 37 46 53 62 0
58 51 42 35 44 37 30 39 46 53 60 0
58 51 42 35 44 37 30 39 46 53 62 0
58 51 42 35 44 37 46 53 60 0
58 51 42 35 44 37 46 53 62 0
58 51 42 35 44 53 60 0
58 51 42 35 44 53 62 0
58 51 44 35 26 19 28 37 30 39 46 53 60 0
58 51 44 35 26 19 28 37 30 39 46 53 62 0
58 51 44 35 26 19 28 37 46 53 60 0
58 51 44 35 26 19 28 37 46 53 62 0
58 51 44 35 28 37 30 39 46 53 60 0
58 51 44 35 28 37 30 39 46 53 62 0
58 51 44 35 28 37 46 53 60 0
58 51 44 35 28 37 46 53 62 0
58 51 44 37 30 39 46 53 60 0
58 51 44 37 30 39 46 53 62 0
58 51 44 37 46 53 60 0
58 51 44 37 46 53 62 0
58 51 44 53 60 0
58 51 44 53 62 0
58 51 60 0
60 51 42 35 26 19 28 37 30 39 46 53 62 0
60 51 42 35 26 19 28 37 44 53 62 0
60 51 42 35 26 19 28 37 46 53 62 0
60 51 42 35 28 37 30 39 46 53 62 0
60 51 42 35 28 37 44 53 62 0
60 51 42 35 28 37 46 53 62 0
60 51 42 35 44 37 30 39 46 53 62 0
60 51 42 35 44 37 46 53 62 0
60 51 42 35 44 53 62 0
60 51 44 35 26 19 28 37 30 39 46 53 62 0
60 51 44 35 26 19 28 37 46 53 62 0
60 51 44 35 28 37 30 39 46 53 62 0
60 51 44 35 28 37 46 53 62 0
60 51 44 37 30 39 46 53 62 0
60 51 44 37 46 53 62 0
60 51 44 53 62 0
60 53 62 0
10 19 26 33 42 51 60 53 46 39 17 0
14 23 30 37 44 51 60 42 28 21 0
14 23 30 37 44 51 60 42 28 21 0
19 26 35 28 0
19 28 35 42 51 60 53 46 39 32 26 0
23 32 39 46 53 60 51 37 30 0
23 32 39 46 53 60 51 37 30 0
26 33 42 35 0
26 35 42 51 60 53 46 33 0
28 35 44 37 0
28 37 44 51 60 42 35 0
28 37 44 51 35 0
30 37 46 39 0
30 39 46 53 60 51 37 0
35 42 51 44 0
35 44 51 60 42 0
37 44 53 46 0
37 46 53 60 51 44 0
37 46 53 44 0
42 51 58 49 0
44 53 60 51 0
